nNurses = 85;
nHours = 39;
minHours = 4;
maxHours = 19;
maxConsec = 10;
maxPresence = 28;
demand = [40, 37, 38, 36, 36, 31, 29, 24, 29, 26, 30, 35, 34, 36, 32, 29, 34, 38, 34, 30, 31, 29, 27, 22, 26, 25, 23, 23, 26, 23, 23, 23, 19, 14, 16, 16, 12, 8, 7];
